Example_II/Log1_cores.log

Gurobi 9.0.2 (linux64) logging started Sun Sep 13 13:12:19 2020

Changed value of parameter LogFile to Log1_cores.log
   Prev:   Default: 
Changed value of parameter Threads to 1
   Prev: 0  Min: 0  Max: 1024  Default: 0
Changed value of parameter MIRCuts to 2
   Prev: -1  Min: -1  Max: 2  Default: -1
Changed value of parameter CliqueCuts to 2
   Prev: -1  Min: -1  Max: 2  Default: -1
Gurobi Optimizer version 9.0.2 build v9.0.2rc0 (linux64)
Optimize a model with 10882 rows, 38880 columns and 175220 nonzeros
Model fingerprint: 0x87fb94b0
Variable types: 0 continuous, 38880 integer (38880 binary)
Coefficient statistics:
  Matrix range     [1e+00, 6e+01]
  Objective range  [1e+00, 1e+00]
  Bounds range     [1e+00, 1e+00]
  RHS range        [1e+00, 3e+02]
Presolve removed 1039 rows and 5026 columns
Presolve time: 0.31s
Presolved: 9843 rows, 33854 columns, 154727 nonzeros
Variable types: 0 continuous, 33854 integer (33854 binary)

Root relaxation: objective 1.000000e+00, 2666 iterations, 0.08 seconds

    Nodes    |    Current Node    |     Objective Bounds      |     Work
 Expl Unexpl |  Obj  Depth IntInf | Incumbent    BestBd   Gap | It/Node Time

     0     0    1.00000    0  474          -    1.00000      -     -    1s
     0     0    1.00000    0  592          -    1.00000      -     -    1s
     0     0    1.00000    0  571          -    1.00000      -     -    2s
     0     0    1.00000    0  224          -    1.00000      -     -    2s
     0     0    1.00000    0  219          -    1.00000      -     -    2s
     0     0    1.00000    0  222          -    1.00000      -     -    3s
     0     0    1.00000    0  280          -    1.00000      -     -    3s
     0     0    1.00000    0  179          -    1.00000      -     -    4s
     0     0    1.00000    0  274          -    1.00000      -     -    4s
     0     0    1.00000    0  175          -    1.00000      -     -    4s
     0     0    1.00000    0  321          -    1.00000      -     -    4s
     0     0    1.00000    0  194          -    1.00000      -     -    5s
     0     0    1.00000    0  175          -    1.00000      -     -    5s
     0     2    1.00000    0  175          -    1.00000      -     -    7s
   133     9    1.00000   30  192          -    1.00000      -   547   10s
   409    44    1.00000   70  284          -    1.00000      -   451   15s
   488    38    1.00000   54  575          -    1.00000      -   622   20s
   617    50    1.00000   96  202          -    1.00000      -   677   25s
   939   361    1.00000  141  175          -    1.00000      -   482   30s
   949   368    4.10667  261  286          -    1.00000      -   477   35s
   957   373    1.00000  127  132          -    1.00000      -   473   40s
   967   376    1.00000   13  159          -    1.00000      -   255   45s
  1009   367    1.00000   20  244          -    1.00000      -   252   50s
  1080   371    1.00000   53  169          -    1.00000      -   241   55s
H 1251   265                       1.0000000    1.00000  0.00%   211   59s

Cutting planes:
  Gomory: 11
  Cover: 130
  Clique: 1
  MIR: 113
  StrongCG: 10
  Flow cover: 62
  Inf proof: 10
  Zero half: 11
  RLT: 6

Explored 1252 nodes (863298 simplex iterations) in 59.10 seconds
Thread count was 1 (of 80 available processors)

Solution count 1: 1 

Optimal solution found (tolerance 1.00e-04)
Best objective 1.000000000000e+00, best bound 1.000000000000e+00, gap 0.0000%
